WARNING: for repeatability, setting FPU to use double precision
============================[ Problem Statistics ]=============================
|                                                                             |
|  Number of variables:         27899                                         |
|  Number of clauses:          575914                                         |
|  Parse time:                   0.18 s                                       |
|  Eliminated clauses:           0.01 Mb                                      |
|  Simplification time:          0.16 s                                       |
|                                                                             |
============================[ Search Statistics ]==============================
| Conflicts |          ORIGINAL         |          LEARNT          | Progress |
|           |    Vars  Clauses Literals |    Limit  Clauses Lit/Cl |          |
===============================================================================
|       100 |    3256    35913    78978 |    13168      100    146 | 85.107 % |
|       250 |    3256    35913    78978 |    14484      250    145 | 85.107 % |
===============================================================================
restarts              : 4
conflicts             : 413            (1185 /sec)
decisions             : 4143           (0.00 % random) (11892 /sec)
propagations          : 140284         (402653 /sec)
conflict literals     : 55518          (0.65 % deleted)
Memory used           : 59.00 MB
CPU time              : 0.348399 s

SATISFIABLE
